p cnf 450 1185
e 273 274 275 276 277 278 279 280 281 282 283 284 285 286 287 288 289 290 291 292 293 294 295 296 297 298 299 300 301 302 303 304 305 306 426 427 428 429 430 431 432 433 434 435 436 437 438 439 440 441 442 0
a 450 0
e 239 240 241 242 243 244 245 246 247 248 249 250 251 252 253 254 255 256 257 258 259 260 261 262 263 264 265 266 267 268 269 270 271 272 409 410 411 412 413 414 415 416 417 418 419 420 421 422 423 424 425 0
a 449 0
e 205 206 207 208 209 210 211 212 213 214 215 216 217 218 219 220 221 222 223 224 225 226 227 228 229 230 231 232 233 234 235 236 237 238 392 393 394 395 396 397 398 399 400 401 402 403 404 405 406 407 408 0
a 448 0
e 171 172 173 174 175 176 177 178 179 180 181 182 183 184 185 186 187 188 189 190 191 192 193 194 195 196 197 198 199 200 201 202 203 204 375 376 377 378 379 380 381 382 383 384 385 386 387 388 389 390 391 0
a 447 0
e 137 138 139 140 141 142 143 144 145 146 147 148 149 150 151 152 153 154 155 156 157 158 159 160 161 162 163 164 165 166 167 168 169 170 358 359 360 361 362 363 364 365 366 367 368 369 370 371 372 373 374 0
a 446 0
e 103 104 105 106 107 108 109 110 111 112 113 114 115 116 117 118 119 120 121 122 123 124 125 126 127 128 129 130 131 132 133 134 135 136 341 342 343 344 345 346 347 348 349 350 351 352 353 354 355 356 357 0
a 445 0
e 69 70 71 72 73 74 75 76 77 78 79 80 81 82 83 84 85 86 87 88 89 90 91 92 93 94 95 96 97 98 99 100 101 102 324 325 326 327 328 329 330 331 332 333 334 335 336 337 338 339 340 0
a 444 0
e 35 36 37 38 39 40 41 42 43 44 45 46 47 48 49 50 51 52 53 54 55 56 57 58 59 60 61 62 63 64 65 66 67 68 307 308 309 310 311 312 313 314 315 316 317 318 319 320 321 322 323 0
a 443 0
e 1 2 3 4 5 6 7 8 9 10 11 12 13 14 15 16 17 18 19 20 21 22 23 24 25 26 27 28 29 30 31 32 33 34 0
-450 273 -239 0
-450 -273 239 0
-450 274 -240 0
-450 -274 240 0
-450 275 -241 0
-450 -275 241 0
-450 276 -242 0
-450 -276 242 0
-450 277 -243 0
-450 -277 243 0
-450 278 -244 0
-450 -278 244 0
-450 279 -245 0
-450 -279 245 0
-450 280 -246 0
-450 -280 246 0
-450 281 -247 0
-450 -281 247 0
-450 282 -248 0
-450 -282 248 0
-450 283 -249 0
-450 -283 249 0
-450 284 -250 0
-450 -284 250 0
-450 285 -251 0
-450 -285 251 0
-450 286 -252 0
-450 -286 252 0
-450 287 -253 0
-450 -287 253 0
-450 288 -254 0
-450 -288 254 0
-450 289 -255 0
-450 -289 255 0
-450 426 -256 0
-450 -426 256 0
-450 427 -257 0
-450 -427 257 0
-450 428 -258 0
-450 -428 258 0
-450 429 -259 0
-450 -429 259 0
-450 430 -260 0
-450 -430 260 0
-450 431 -261 0
-450 -431 261 0
-450 432 -262 0
-450 -432 262 0
-450 433 -263 0
-450 -433 263 0
-450 434 -264 0
-450 -434 264 0
-450 435 -265 0
-450 -435 265 0
-450 436 -266 0
-450 -436 266 0
-450 437 -267 0
-450 -437 267 0
-450 438 -268 0
-450 -438 268 0
-450 439 -269 0
-450 -439 269 0
-450 440 -270 0
-450 -440 270 0
-450 441 -271 0
-450 -441 271 0
-450 442 -272 0
-450 -442 272 0
450 426 -239 0
450 -426 239 0
450 427 -240 0
450 -427 240 0
450 428 -241 0
450 -428 241 0
450 429 -242 0
450 -429 242 0
450 430 -243 0
450 -430 243 0
450 431 -244 0
450 -431 244 0
450 432 -245 0
450 -432 245 0
450 433 -246 0
450 -433 246 0
450 434 -247 0
450 -434 247 0
450 435 -248 0
450 -435 248 0
450 436 -249 0
450 -436 249 0
450 437 -250 0
450 -437 250 0
450 438 -251 0
450 -438 251 0
450 439 -252 0
450 -439 252 0
450 440 -253 0
450 -440 253 0
450 441 -254 0
450 -441 254 0
450 442 -255 0
450 -442 255 0
450 290 -256 0
450 -290 256 0
450 291 -257 0
450 -291 257 0
450 292 -258 0
450 -292 258 0
450 293 -259 0
450 -293 259 0
450 294 -260 0
450 -294 260 0
450 295 -261 0
450 -295 261 0
450 296 -262 0
450 -296 262 0
450 297 -263 0
450 -297 263 0
450 298 -264 0
450 -298 264 0
450 299 -265 0
450 -299 265 0
450 300 -266 0
450 -300 266 0
450 301 -267 0
450 -301 267 0
450 302 -268 0
450 -302 268 0
450 303 -269 0
450 -303 269 0
450 304 -270 0
450 -304 270 0
450 305 -271 0
450 -305 271 0
450 306 -272 0
450 -306 272 0
-449 239 -205 0
-449 -239 205 0
-449 240 -206 0
-449 -240 206 0
-449 241 -207 0
-449 -241 207 0
-449 242 -208 0
-449 -242 208 0
-449 243 -209 0
-449 -243 209 0
-449 244 -210 0
-449 -244 210 0
-449 245 -211 0
-449 -245 211 0
-449 246 -212 0
-449 -246 212 0
-449 247 -213 0
-449 -247 213 0
-449 248 -214 0
-449 -248 214 0
-449 249 -215 0
-449 -249 215 0
-449 250 -216 0
-449 -250 216 0
-449 251 -217 0
-449 -251 217 0
-449 252 -218 0
-449 -252 218 0
-449 253 -219 0
-449 -253 219 0
-449 254 -220 0
-449 -254 220 0
-449 255 -221 0
-449 -255 221 0
-449 409 -222 0
-449 -409 222 0
-449 410 -223 0
-449 -410 223 0
-449 411 -224 0
-449 -411 224 0
-449 412 -225 0
-449 -412 225 0
-449 413 -226 0
-449 -413 226 0
-449 414 -227 0
-449 -414 227 0
-449 415 -228 0
-449 -415 228 0
-449 416 -229 0
-449 -416 229 0
-449 417 -230 0
-449 -417 230 0
-449 418 -231 0
-449 -418 231 0
-449 419 -232 0
-449 -419 232 0
-449 420 -233 0
-449 -420 233 0
-449 421 -234 0
-449 -421 234 0
-449 422 -235 0
-449 -422 235 0
-449 423 -236 0
-449 -423 236 0
-449 424 -237 0
-449 -424 237 0
-449 425 -238 0
-449 -425 238 0
449 409 -205 0
449 -409 205 0
449 410 -206 0
449 -410 206 0
449 411 -207 0
449 -411 207 0
449 412 -208 0
449 -412 208 0
449 413 -209 0
449 -413 209 0
449 414 -210 0
449 -414 210 0
449 415 -211 0
449 -415 211 0
449 416 -212 0
449 -416 212 0
449 417 -213 0
449 -417 213 0
449 418 -214 0
449 -418 214 0
449 419 -215 0
449 -419 215 0
449 420 -216 0
449 -420 216 0
449 421 -217 0
449 -421 217 0
449 422 -218 0
449 -422 218 0
449 423 -219 0
449 -423 219 0
449 424 -220 0
449 -424 220 0
449 425 -221 0
449 -425 221 0
449 256 -222 0
449 -256 222 0
449 257 -223 0
449 -257 223 0
449 258 -224 0
449 -258 224 0
449 259 -225 0
449 -259 225 0
449 260 -226 0
449 -260 226 0
449 261 -227 0
449 -261 227 0
449 262 -228 0
449 -262 228 0
449 263 -229 0
449 -263 229 0
449 264 -230 0
449 -264 230 0
449 265 -231 0
449 -265 231 0
449 266 -232 0
449 -266 232 0
449 267 -233 0
449 -267 233 0
449 268 -234 0
449 -268 234 0
449 269 -235 0
449 -269 235 0
449 270 -236 0
449 -270 236 0
449 271 -237 0
449 -271 237 0
449 272 -238 0
449 -272 238 0
-448 205 -171 0
-448 -205 171 0
-448 206 -172 0
-448 -206 172 0
-448 207 -173 0
-448 -207 173 0
-448 208 -174 0
-448 -208 174 0
-448 209 -175 0
-448 -209 175 0
-448 210 -176 0
-448 -210 176 0
-448 211 -177 0
-448 -211 177 0
-448 212 -178 0
-448 -212 178 0
-448 213 -179 0
-448 -213 179 0
-448 214 -180 0
-448 -214 180 0
-448 215 -181 0
-448 -215 181 0
-448 216 -182 0
-448 -216 182 0
-448 217 -183 0
-448 -217 183 0
-448 218 -184 0
-448 -218 184 0
-448 219 -185 0
-448 -219 185 0
-448 220 -186 0
-448 -220 186 0
-448 221 -187 0
-448 -221 187 0
-448 392 -188 0
-448 -392 188 0
-448 393 -189 0
-448 -393 189 0
-448 394 -190 0
-448 -394 190 0
-448 395 -191 0
-448 -395 191 0
-448 396 -192 0
-448 -396 192 0
-448 397 -193 0
-448 -397 193 0
-448 398 -194 0
-448 -398 194 0
-448 399 -195 0
-448 -399 195 0
-448 400 -196 0
-448 -400 196 0
-448 401 -197 0
-448 -401 197 0
-448 402 -198 0
-448 -402 198 0
-448 403 -199 0
-448 -403 199 0
-448 404 -200 0
-448 -404 200 0
-448 405 -201 0
-448 -405 201 0
-448 406 -202 0
-448 -406 202 0
-448 407 -203 0
-448 -407 203 0
-448 408 -204 0
-448 -408 204 0
448 392 -171 0
448 -392 171 0
448 393 -172 0
448 -393 172 0
448 394 -173 0
448 -394 173 0
448 395 -174 0
448 -395 174 0
448 396 -175 0
448 -396 175 0
448 397 -176 0
448 -397 176 0
448 398 -177 0
448 -398 177 0
448 399 -178 0
448 -399 178 0
448 400 -179 0
448 -400 179 0
448 401 -180 0
448 -401 180 0
448 402 -181 0
448 -402 181 0
448 403 -182 0
448 -403 182 0
448 404 -183 0
448 -404 183 0
448 405 -184 0
448 -405 184 0
448 406 -185 0
448 -406 185 0
448 407 -186 0
448 -407 186 0
448 408 -187 0
448 -408 187 0
448 222 -188 0
448 -222 188 0
448 223 -189 0
448 -223 189 0
448 224 -190 0
448 -224 190 0
448 225 -191 0
448 -225 191 0
448 226 -192 0
448 -226 192 0
448 227 -193 0
448 -227 193 0
448 228 -194 0
448 -228 194 0
448 229 -195 0
448 -229 195 0
448 230 -196 0
448 -230 196 0
448 231 -197 0
448 -231 197 0
448 232 -198 0
448 -232 198 0
448 233 -199 0
448 -233 199 0
448 234 -200 0
448 -234 200 0
448 235 -201 0
448 -235 201 0
448 236 -202 0
448 -236 202 0
448 237 -203 0
448 -237 203 0
448 238 -204 0
448 -238 204 0
-447 171 -137 0
-447 -171 137 0
-447 172 -138 0
-447 -172 138 0
-447 173 -139 0
-447 -173 139 0
-447 174 -140 0
-447 -174 140 0
-447 175 -141 0
-447 -175 141 0
-447 176 -142 0
-447 -176 142 0
-447 177 -143 0
-447 -177 143 0
-447 178 -144 0
-447 -178 144 0
-447 179 -145 0
-447 -179 145 0
-447 180 -146 0
-447 -180 146 0
-447 181 -147 0
-447 -181 147 0
-447 182 -148 0
-447 -182 148 0
-447 183 -149 0
-447 -183 149 0
-447 184 -150 0
-447 -184 150 0
-447 185 -151 0
-447 -185 151 0
-447 186 -152 0
-447 -186 152 0
-447 187 -153 0
-447 -187 153 0
-447 375 -154 0
-447 -375 154 0
-447 376 -155 0
-447 -376 155 0
-447 377 -156 0
-447 -377 156 0
-447 378 -157 0
-447 -378 157 0
-447 379 -158 0
-447 -379 158 0
-447 380 -159 0
-447 -380 159 0
-447 381 -160 0
-447 -381 160 0
-447 382 -161 0
-447 -382 161 0
-447 383 -162 0
-447 -383 162 0
-447 384 -163 0
-447 -384 163 0
-447 385 -164 0
-447 -385 164 0
-447 386 -165 0
-447 -386 165 0
-447 387 -166 0
-447 -387 166 0
-447 388 -167 0
-447 -388 167 0
-447 389 -168 0
-447 -389 168 0
-447 390 -169 0
-447 -390 169 0
-447 391 -170 0
-447 -391 170 0
447 375 -137 0
447 -375 137 0
447 376 -138 0
447 -376 138 0
447 377 -139 0
447 -377 139 0
447 378 -140 0
447 -378 140 0
447 379 -141 0
447 -379 141 0
447 380 -142 0
447 -380 142 0
447 381 -143 0
447 -381 143 0
447 382 -144 0
447 -382 144 0
447 383 -145 0
447 -383 145 0
447 384 -146 0
447 -384 146 0
447 385 -147 0
447 -385 147 0
447 386 -148 0
447 -386 148 0
447 387 -149 0
447 -387 149 0
447 388 -150 0
447 -388 150 0
447 389 -151 0
447 -389 151 0
447 390 -152 0
447 -390 152 0
447 391 -153 0
447 -391 153 0
447 188 -154 0
447 -188 154 0
447 189 -155 0
447 -189 155 0
447 190 -156 0
447 -190 156 0
447 191 -157 0
447 -191 157 0
447 192 -158 0
447 -192 158 0
447 193 -159 0
447 -193 159 0
447 194 -160 0
447 -194 160 0
447 195 -161 0
447 -195 161 0
447 196 -162 0
447 -196 162 0
447 197 -163 0
447 -197 163 0
447 198 -164 0
447 -198 164 0
447 199 -165 0
447 -199 165 0
447 200 -166 0
447 -200 166 0
447 201 -167 0
447 -201 167 0
447 202 -168 0
447 -202 168 0
447 203 -169 0
447 -203 169 0
447 204 -170 0
447 -204 170 0
-446 137 -103 0
-446 -137 103 0
-446 138 -104 0
-446 -138 104 0
-446 139 -105 0
-446 -139 105 0
-446 140 -106 0
-446 -140 106 0
-446 141 -107 0
-446 -141 107 0
-446 142 -108 0
-446 -142 108 0
-446 143 -109 0
-446 -143 109 0
-446 144 -110 0
-446 -144 110 0
-446 145 -111 0
-446 -145 111 0
-446 146 -112 0
-446 -146 112 0
-446 147 -113 0
-446 -147 113 0
-446 148 -114 0
-446 -148 114 0
-446 149 -115 0
-446 -149 115 0
-446 150 -116 0
-446 -150 116 0
-446 151 -117 0
-446 -151 117 0
-446 152 -118 0
-446 -152 118 0
-446 153 -119 0
-446 -153 119 0
-446 358 -120 0
-446 -358 120 0
-446 359 -121 0
-446 -359 121 0
-446 360 -122 0
-446 -360 122 0
-446 361 -123 0
-446 -361 123 0
-446 362 -124 0
-446 -362 124 0
-446 363 -125 0
-446 -363 125 0
-446 364 -126 0
-446 -364 126 0
-446 365 -127 0
-446 -365 127 0
-446 366 -128 0
-446 -366 128 0
-446 367 -129 0
-446 -367 129 0
-446 368 -130 0
-446 -368 130 0
-446 369 -131 0
-446 -369 131 0
-446 370 -132 0
-446 -370 132 0
-446 371 -133 0
-446 -371 133 0
-446 372 -134 0
-446 -372 134 0
-446 373 -135 0
-446 -373 135 0
-446 374 -136 0
-446 -374 136 0
446 358 -103 0
446 -358 103 0
446 359 -104 0
446 -359 104 0
446 360 -105 0
446 -360 105 0
446 361 -106 0
446 -361 106 0
446 362 -107 0
446 -362 107 0
446 363 -108 0
446 -363 108 0
446 364 -109 0
446 -364 109 0
446 365 -110 0
446 -365 110 0
446 366 -111 0
446 -366 111 0
446 367 -112 0
446 -367 112 0
446 368 -113 0
446 -368 113 0
446 369 -114 0
446 -369 114 0
446 370 -115 0
446 -370 115 0
446 371 -116 0
446 -371 116 0
446 372 -117 0
446 -372 117 0
446 373 -118 0
446 -373 118 0
446 374 -119 0
446 -374 119 0
446 154 -120 0
446 -154 120 0
446 155 -121 0
446 -155 121 0
446 156 -122 0
446 -156 122 0
446 157 -123 0
446 -157 123 0
446 158 -124 0
446 -158 124 0
446 159 -125 0
446 -159 125 0
446 160 -126 0
446 -160 126 0
446 161 -127 0
446 -161 127 0
446 162 -128 0
446 -162 128 0
446 163 -129 0
446 -163 129 0
446 164 -130 0
446 -164 130 0
446 165 -131 0
446 -165 131 0
446 166 -132 0
446 -166 132 0
446 167 -133 0
446 -167 133 0
446 168 -134 0
446 -168 134 0
446 169 -135 0
446 -169 135 0
446 170 -136 0
446 -170 136 0
-445 103 -69 0
-445 -103 69 0
-445 104 -70 0
-445 -104 70 0
-445 105 -71 0
-445 -105 71 0
-445 106 -72 0
-445 -106 72 0
-445 107 -73 0
-445 -107 73 0
-445 108 -74 0
-445 -108 74 0
-445 109 -75 0
-445 -109 75 0
-445 110 -76 0
-445 -110 76 0
-445 111 -77 0
-445 -111 77 0
-445 112 -78 0
-445 -112 78 0
-445 113 -79 0
-445 -113 79 0
-445 114 -80 0
-445 -114 80 0
-445 115 -81 0
-445 -115 81 0
-445 116 -82 0
-445 -116 82 0
-445 117 -83 0
-445 -117 83 0
-445 118 -84 0
-445 -118 84 0
-445 119 -85 0
-445 -119 85 0
-445 341 -86 0
-445 -341 86 0
-445 342 -87 0
-445 -342 87 0
-445 343 -88 0
-445 -343 88 0
-445 344 -89 0
-445 -344 89 0
-445 345 -90 0
-445 -345 90 0
-445 346 -91 0
-445 -346 91 0
-445 347 -92 0
-445 -347 92 0
-445 348 -93 0
-445 -348 93 0
-445 349 -94 0
-445 -349 94 0
-445 350 -95 0
-445 -350 95 0
-445 351 -96 0
-445 -351 96 0
-445 352 -97 0
-445 -352 97 0
-445 353 -98 0
-445 -353 98 0
-445 354 -99 0
-445 -354 99 0
-445 355 -100 0
-445 -355 100 0
-445 356 -101 0
-445 -356 101 0
-445 357 -102 0
-445 -357 102 0
445 341 -69 0
445 -341 69 0
445 342 -70 0
445 -342 70 0
445 343 -71 0
445 -343 71 0
445 344 -72 0
445 -344 72 0
445 345 -73 0
445 -345 73 0
445 346 -74 0
445 -346 74 0
445 347 -75 0
445 -347 75 0
445 348 -76 0
445 -348 76 0
445 349 -77 0
445 -349 77 0
445 350 -78 0
445 -350 78 0
445 351 -79 0
445 -351 79 0
445 352 -80 0
445 -352 80 0
445 353 -81 0
445 -353 81 0
445 354 -82 0
445 -354 82 0
445 355 -83 0
445 -355 83 0
445 356 -84 0
445 -356 84 0
445 357 -85 0
445 -357 85 0
445 120 -86 0
445 -120 86 0
445 121 -87 0
445 -121 87 0
445 122 -88 0
445 -122 88 0
445 123 -89 0
445 -123 89 0
445 124 -90 0
445 -124 90 0
445 125 -91 0
445 -125 91 0
445 126 -92 0
445 -126 92 0
445 127 -93 0
445 -127 93 0
445 128 -94 0
445 -128 94 0
445 129 -95 0
445 -129 95 0
445 130 -96 0
445 -130 96 0
445 131 -97 0
445 -131 97 0
445 132 -98 0
445 -132 98 0
445 133 -99 0
445 -133 99 0
445 134 -100 0
445 -134 100 0
445 135 -101 0
445 -135 101 0
445 136 -102 0
445 -136 102 0
-444 69 -35 0
-444 -69 35 0
-444 70 -36 0
-444 -70 36 0
-444 71 -37 0
-444 -71 37 0
-444 72 -38 0
-444 -72 38 0
-444 73 -39 0
-444 -73 39 0
-444 74 -40 0
-444 -74 40 0
-444 75 -41 0
-444 -75 41 0
-444 76 -42 0
-444 -76 42 0
-444 77 -43 0
-444 -77 43 0
-444 78 -44 0
-444 -78 44 0
-444 79 -45 0
-444 -79 45 0
-444 80 -46 0
-444 -80 46 0
-444 81 -47 0
-444 -81 47 0
-444 82 -48 0
-444 -82 48 0
-444 83 -49 0
-444 -83 49 0
-444 84 -50 0
-444 -84 50 0
-444 85 -51 0
-444 -85 51 0
-444 324 -52 0
-444 -324 52 0
-444 325 -53 0
-444 -325 53 0
-444 326 -54 0
-444 -326 54 0
-444 327 -55 0
-444 -327 55 0
-444 328 -56 0
-444 -328 56 0
-444 329 -57 0
-444 -329 57 0
-444 330 -58 0
-444 -330 58 0
-444 331 -59 0
-444 -331 59 0
-444 332 -60 0
-444 -332 60 0
-444 333 -61 0
-444 -333 61 0
-444 334 -62 0
-444 -334 62 0
-444 335 -63 0
-444 -335 63 0
-444 336 -64 0
-444 -336 64 0
-444 337 -65 0
-444 -337 65 0
-444 338 -66 0
-444 -338 66 0
-444 339 -67 0
-444 -339 67 0
-444 340 -68 0
-444 -340 68 0
444 324 -35 0
444 -324 35 0
444 325 -36 0
444 -325 36 0
444 326 -37 0
444 -326 37 0
444 327 -38 0
444 -327 38 0
444 328 -39 0
444 -328 39 0
444 329 -40 0
444 -329 40 0
444 330 -41 0
444 -330 41 0
444 331 -42 0
444 -331 42 0
444 332 -43 0
444 -332 43 0
444 333 -44 0
444 -333 44 0
444 334 -45 0
444 -334 45 0
444 335 -46 0
444 -335 46 0
444 336 -47 0
444 -336 47 0
444 337 -48 0
444 -337 48 0
444 338 -49 0
444 -338 49 0
444 339 -50 0
444 -339 50 0
444 340 -51 0
444 -340 51 0
444 86 -52 0
444 -86 52 0
444 87 -53 0
444 -87 53 0
444 88 -54 0
444 -88 54 0
444 89 -55 0
444 -89 55 0
444 90 -56 0
444 -90 56 0
444 91 -57 0
444 -91 57 0
444 92 -58 0
444 -92 58 0
444 93 -59 0
444 -93 59 0
444 94 -60 0
444 -94 60 0
444 95 -61 0
444 -95 61 0
444 96 -62 0
444 -96 62 0
444 97 -63 0
444 -97 63 0
444 98 -64 0
444 -98 64 0
444 99 -65 0
444 -99 65 0
444 100 -66 0
444 -100 66 0
444 101 -67 0
444 -101 67 0
444 102 -68 0
444 -102 68 0
-443 35 -1 0
-443 -35 1 0
-443 36 -2 0
-443 -36 2 0
-443 37 -3 0
-443 -37 3 0
-443 38 -4 0
-443 -38 4 0
-443 39 -5 0
-443 -39 5 0
-443 40 -6 0
-443 -40 6 0
-443 41 -7 0
-443 -41 7 0
-443 42 -8 0
-443 -42 8 0
-443 43 -9 0
-443 -43 9 0
-443 44 -10 0
-443 -44 10 0
-443 45 -11 0
-443 -45 11 0
-443 46 -12 0
-443 -46 12 0
-443 47 -13 0
-443 -47 13 0
-443 48 -14 0
-443 -48 14 0
-443 49 -15 0
-443 -49 15 0
-443 50 -16 0
-443 -50 16 0
-443 51 -17 0
-443 -51 17 0
-443 307 -18 0
-443 -307 18 0
-443 308 -19 0
-443 -308 19 0
-443 309 -20 0
-443 -309 20 0
-443 310 -21 0
-443 -310 21 0
-443 311 -22 0
-443 -311 22 0
-443 312 -23 0
-443 -312 23 0
-443 313 -24 0
-443 -313 24 0
-443 314 -25 0
-443 -314 25 0
-443 315 -26 0
-443 -315 26 0
-443 316 -27 0
-443 -316 27 0
-443 317 -28 0
-443 -317 28 0
-443 318 -29 0
-443 -318 29 0
-443 319 -30 0
-443 -319 30 0
-443 320 -31 0
-443 -320 31 0
-443 321 -32 0
-443 -321 32 0
-443 322 -33 0
-443 -322 33 0
-443 323 -34 0
-443 -323 34 0
443 307 -1 0
443 -307 1 0
443 308 -2 0
443 -308 2 0
443 309 -3 0
443 -309 3 0
443 310 -4 0
443 -310 4 0
443 311 -5 0
443 -311 5 0
443 312 -6 0
443 -312 6 0
443 313 -7 0
443 -313 7 0
443 314 -8 0
443 -314 8 0
443 315 -9 0
443 -315 9 0
443 316 -10 0
443 -316 10 0
443 317 -11 0
443 -317 11 0
443 318 -12 0
443 -318 12 0
443 319 -13 0
443 -319 13 0
443 320 -14 0
443 -320 14 0
443 321 -15 0
443 -321 15 0
443 322 -16 0
443 -322 16 0
443 323 -17 0
443 -323 17 0
443 52 -18 0
443 -52 18 0
443 53 -19 0
443 -53 19 0
443 54 -20 0
443 -54 20 0
443 55 -21 0
443 -55 21 0
443 56 -22 0
443 -56 22 0
443 57 -23 0
443 -57 23 0
443 58 -24 0
443 -58 24 0
443 59 -25 0
443 -59 25 0
443 60 -26 0
443 -60 26 0
443 61 -27 0
443 -61 27 0
443 62 -28 0
443 -62 28 0
443 63 -29 0
443 -63 29 0
443 64 -30 0
443 -64 30 0
443 65 -31 0
443 -65 31 0
443 66 -32 0
443 -66 32 0
443 67 -33 0
443 -67 33 0
443 68 -34 0
443 -68 34 0
-273 0
-282 273 0
-283 0
-284 283 0
-285 0
-286 285 0
-287 0
-288 287 0
-289 -17 -9 0
17 -9 0
-289 9 0
-17 9 -8 0
-9 8 0
16 -8 -7 0
-8 7 0
15 -8 -7 0
-16 -15 8 -7 0
15 8 -7 0
-15 7 -6 0
-7 6 0
14 -6 -5 0
-6 5 0
13 -6 -5 0
-14 -13 6 -5 0
13 6 -5 0
-13 5 -4 0
-5 4 0
12 -4 -3 0
-4 3 0
11 -4 -3 0
-12 -11 4 -3 0
11 4 -3 0
-11 3 -2 0
-3 2 0
10 -2 0
-10 2 0
-34 -17 -8 0
-34 17 8 0
34 17 -8 0
34 -17 8 0
-33 -16 -7 0
-33 16 7 0
33 16 -7 0
33 -16 7 0
-32 -15 -6 0
-32 15 6 0
32 15 -6 0
32 -15 6 0
-31 -14 -5 0
-31 14 5 0
31 14 -5 0
31 -14 5 0
-30 -13 -4 0
-30 13 4 0
30 13 -4 0
30 -13 4 0
-29 -12 -3 0
-29 12 3 0
29 12 -3 0
29 -12 3 0
-28 -11 -2 0
-28 11 2 0
28 11 -2 0
28 -11 2 0
-27 -10 0
27 10 0
18 -1 0
-18 9 1 0
34 -26 -18 -9 0
18 -9 0
34 -26 9 0
-34 26 -25 0
-26 25 0
33 -25 -24 0
-25 24 0
32 -25 -24 0
-33 -32 25 -24 0
32 25 -24 0
-32 24 -23 0
-24 23 0
31 -23 -22 0
-23 22 0
30 -23 -22 0
-31 -30 23 -22 0
30 23 -22 0
-30 22 -21 0
-22 21 0
29 -21 -20 0
-21 20 0
28 -21 -20 0
-29 -28 21 -20 0
28 21 -20 0
-28 20 -19 0
-20 19 0
27 -19 0
-27 19 0
290 0

